NAME: dataset10
TYPE: TSP
COMMENT: 10 random locations
DIMENSION: 10
EDGE_WEIGHT_TYPE: EUC_2D
NODE_COORD_SECTION
1 220.7547169811 22.1391174271
2 23.3365477338 72.3834652595
3 89.9251583189 27.0010672359
4 117.3064411191 107.7423552375
5 173.1343283582 441.5196743555
6 68.756027001 223.5463442717
7 59.5685455811 72.739102147
8 419.3548387097 42.8833231521
9 279.091995221 3.2530904359
10 176.8379960963 234.7251217815
EOF
